S = {S1,S2,S3,S4,S5,S6};
s = [800,800,1000,2000,2000,3000];
p = [160,155,155,160,155,150,160];
fare=
[|0,160,140,98.6,38,20.5,3.1,21.2,64.2,92,96,106,121,128,142
|0,205,190,172,111,95.5,86,71.2,114,142,146,156,171,178,182
|0,220,200,182,121,106,96,86.2,48.2,82,86,96,111,118,132
|0,250,235,217,156,141,131,116,84.2,62,51,61,76.2,83,97
|0,245,225,207,146,131,121,111,79.2,57,33,51,71.2,73,87
|0,255,235,235,156,141,131,121,84.2,62,51,45,26.2,23,28
|0,265,245,227,166,151,141,131,99.2,77,66,56,38.2,26,22|];